Reading model...
...model read.
creating competitive generators file...
...competitive generators recorded.
Loading data...
.. real-time data read.
Compiling instance...
...instance created.
Creating Offer Mitigation (model will solve as dispatch if TRUE)...
NOTE: storage offers will not be mitigated
...storage offer mitigation file created
Converting model to MPEC...
...converted
NOTE: initial MIP solve with only storage competitive to get feasible solution
Solving...

Welcome to IBM(R) ILOG(R) CPLEX(R) Interactive Optimizer 12.9.0.0
  with Simplex, Mixed Integer & Barrier Optimizers
5725-A06 5725-A29 5724-Y48 5724-Y49 5724-Y54 5724-Y55 5655-Y21
Copyright IBM Corp. 1988, 2019.  All Rights Reserved.

Type 'help' for a list of available commands.
Type 'help' followed by a command name for more
information on commands.

CPLEX> Logfile 'cplex.log' closed.
Logfile 'C:\Users\llavin\Desktop\test85\logs\tmpie0o6em9.cplex.log' open.
CPLEX> New value for parallel optimization mode: -1
CPLEX> New value for mixed integer optimality gap tolerance: 0.05
CPLEX> New value for deterministic time limit in ticks: 100000
CPLEX> Problem 'C:\Users\llavin\Desktop\test85\logs\tmpxhrki86f.pyomo.lp' read.
Read time = 0.52 sec. (27.87 ticks)
CPLEX> Problem name         : C:\Users\llavin\Desktop\test85\logs\tmpxhrki86f.pyomo.lp
Objective sense      : Maximize
Variables            :  107779  [Nneg: 1,  Box: 44054,  Free: 8928,
                                 Binary: 54796]
Objective nonzeros   :   19154
Linear constraints   :  246995  [Less: 82866,  Greater: 118424,  Equal: 45705]
  Nonzeros           :  582461
  RHS nonzeros       :  136224

Variables            : Min LB: -5000.000        Max UB: 1000000.       
Objective nonzeros   : Min   : 0.1250000        Max   : 2500.000       
Linear constraints   :
  Nonzeros           : Min   : 0.1250000        Max   : 1000000.       
  RHS nonzeros       : Min   : 0.1250000        Max   : 1000000.       
CPLEX> CPXPARAM_Parallel                                -1
CPXPARAM_DetTimeLimit                            100000
CPXPARAM_MIP_Tolerances_MIPGap                   0.050000000000000003
Tried aggregator 3 times.
MIP Presolve eliminated 172920 rows and 33888 columns.
MIP Presolve added 7773 rows and 0 columns.
MIP Presolve modified 52040 coefficients.
Aggregator did 26192 substitutions.
Reduced MIP has 55656 rows, 47315 columns, and 152036 nonzeros.
Reduced MIP has 18793 binaries, 0 generals, 0 SOSs, and 0 indicators.
Presolve time = 0.58 sec. (339.57 ticks)
Probing fixed 808 vars, tightened 8488 bounds.
Probing time = 0.39 sec. (15.87 ticks)
Tried aggregator 2 times.
MIP Presolve eliminated 1858 rows and 1633 columns.
MIP Presolve modified 7129 coefficients.
Aggregator did 51 substitutions.
Reduced MIP has 53747 rows, 45631 columns, and 146479 nonzeros.
Reduced MIP has 17982 binaries, 0 generals, 0 SOSs, and 0 indicators.
Presolve time = 0.31 sec. (267.72 ticks)
Probing fixed 5 vars, tightened 203 bounds.
Probing time = 0.56 sec. (19.91 ticks)
Clique table members: 91787.
MIP emphasis: balance optimality and feasibility.
MIP search method: dynamic search.
Parallel mode: opportunistic, using up to 32 threads.
Root relaxation solution time = 1.13 sec. (2122.60 ticks)

        Nodes                                         Cuts/
   Node  Left     Objective  IInf  Best Integer    Best Bound    ItCnt     Gap

      0     0        0.0000     6                      0.0000     9404         
*     0+    0                            0.0000        0.0000             0.00%
      0     0        cutoff              0.0000        0.0000     9404    0.00%
Elapsed time = 3.72 sec. (3274.11 ticks, tree = 0.01 MB, solutions = 1)

Root node processing (before b&c):
  Real time             =    3.75 sec. (3278.11 ticks)
Parallel b&c, 32 threads:
  Real time             =    0.00 sec. (0.00 ticks)
  Sync time (average)   =    0.00 sec.
  Wait time (average)   =    0.00 sec.
                          ------------
Total (root+branch&cut) =    3.75 sec. (3278.11 ticks)

Solution pool: 1 solution saved.

MIP - Integer optimal solution:  Objective =  0.0000000000e+00
Solution time =    3.76 sec.  Iterations = 9404  Nodes = 0
Deterministic time = 3278.42 ticks  (870.76 ticks/sec)

CPLEX> Incumbent solution written to file 'C:\Users\llavin\Desktop\test85\logs\tmp5dicg1wq.cplex.sol'.
CPLEX> NOTE: no warmstart specified for MIP iteration, default behavior is true
NOTE: resolving with all competitive generators using storage-only solution to warmstart
Solving...

Welcome to IBM(R) ILOG(R) CPLEX(R) Interactive Optimizer 12.9.0.0
  with Simplex, Mixed Integer & Barrier Optimizers
5725-A06 5725-A29 5724-Y48 5724-Y49 5724-Y54 5724-Y55 5655-Y21
Copyright IBM Corp. 1988, 2019.  All Rights Reserved.

Type 'help' for a list of available commands.
Type 'help' followed by a command name for more
information on commands.

CPLEX> Logfile 'cplex.log' closed.
Logfile 'C:\Users\llavin\Desktop\test85\logs\tmpienib835.cplex.log' open.
CPLEX> New value for parallel optimization mode: -1
CPLEX> New value for mixed integer optimality gap tolerance: 0.05
CPLEX> New value for deterministic time limit in ticks: 100000
CPLEX> Problem 'C:\Users\llavin\Desktop\test85\logs\tmpx6rh010g.pyomo.lp' read.
Read time = 0.52 sec. (27.92 ticks)
CPLEX> MIP start file 'C:\Users\llavin\Desktop\test85\logs\tmpki9jrv73.cplex.mst' read.
CPLEX> Problem name         : C:\Users\llavin\Desktop\test85\logs\tmpx6rh010g.pyomo.lp
Objective sense      : Maximize
Variables            :  109219  [Nneg: 1,  Box: 45494,  Free: 8928,
                                 Binary: 54796]
Objective nonzeros   :   20546
Linear constraints   :  246995  [Less: 82866,  Greater: 118424,  Equal: 45705]
  Nonzeros           :  582461
  RHS nonzeros       :  136224

Variables            : Min LB: -5000.000        Max UB: 1000000.       
Objective nonzeros   : Min   : 0.1250000        Max   : 2500.000       
Linear constraints   :
  Nonzeros           : Min   : 0.1250000        Max   : 1000000.       
  RHS nonzeros       : Min   : 0.1250000        Max   : 1000000.       
CPLEX> CPXPARAM_Parallel                                -1
CPXPARAM_DetTimeLimit                            100000
CPXPARAM_MIP_Tolerances_MIPGap                   0.050000000000000003
1 of 1 MIP starts provided solutions.
MIP start 'm1' defined initial solution with objective 0.0000.
Tried aggregator 3 times.
MIP Presolve eliminated 172920 rows and 35328 columns.
MIP Presolve added 7773 rows and 0 columns.
MIP Presolve modified 52040 coefficients.
Aggregator did 26192 substitutions.
Reduced MIP has 55656 rows, 47315 columns, and 152036 nonzeros.
Reduced MIP has 18793 binaries, 0 generals, 0 SOSs, and 0 indicators.
Presolve time = 0.59 sec. (340.31 ticks)
Probing fixed 808 vars, tightened 8488 bounds.
Probing time = 0.42 sec. (15.87 ticks)
Tried aggregator 2 times.
MIP Presolve eliminated 1858 rows and 1633 columns.
MIP Presolve modified 7129 coefficients.
Aggregator did 51 substitutions.
Reduced MIP has 53747 rows, 45631 columns, and 146479 nonzeros.
Reduced MIP has 17982 binaries, 0 generals, 0 SOSs, and 0 indicators.
Presolve time = 0.30 sec. (267.73 ticks)
Probing fixed 5 vars, tightened 188 bounds.
Probing time = 0.61 sec. (20.08 ticks)
Clique table members: 91576.
MIP emphasis: balance optimality and feasibility.
MIP search method: dynamic search.
Parallel mode: opportunistic, using up to 32 threads.
Root relaxation solution time = 1.23 sec. (2182.92 ticks)

        Nodes                                         Cuts/
   Node  Left     Objective  IInf  Best Integer    Best Bound    ItCnt     Gap

*     0+    0                            0.0000   1.03733e+07              --- 
      0     0        cutoff              0.0000        0.0000    10716    0.00%
      0     0        cutoff              0.0000        0.0000    10716    0.00%
Elapsed time = 4.13 sec. (3419.50 ticks, tree = 0.01 MB, solutions = 1)

Root node processing (before b&c):
  Real time             =    4.16 sec. (3422.15 ticks)
Parallel b&c, 32 threads:
  Real time             =    0.00 sec. (0.00 ticks)
  Sync time (average)   =    0.00 sec.
  Wait time (average)   =    0.00 sec.
                          ------------
Total (root+branch&cut) =    4.16 sec. (3422.15 ticks)

Solution pool: 1 solution saved.

MIP - Integer optimal solution:  Objective =  0.0000000000e+00
Solution time =    4.17 sec.  Iterations = 10716  Nodes = 0
Deterministic time = 3422.46 ticks  (820.34 ticks/sec)

CPLEX> Incumbent solution written to file 'C:\Users\llavin\Desktop\test85\logs\tmpznbgvwlk.cplex.sol'.
CPLEX> Exporting results... 
